
  22   10
  10   10   10   10   10   10   10   10   10   10

   0   0   0   0   0   0   0   0   0   0   0   3 2 3 5 
  10   0   0   0   0   0   0  10   0   0   0   1 4 
   2   0   0   0   0  10   0   0   0   0   0   1 4 
   5   0   0   0   0   0   0   0   0   0  10   1 6 
   7   0  10   0   0   0   0   0   0   0   0   1 6 
   9   0   0   0   0   0   0   0   0  10   0   2 8 7 
   6   0   0   0   0   0  10   0   0   0   0   3 11 10 9 
   5   0   0   0   0  10   0   0   0   0   0   2 15 12 
   3   0   0   0   0   0   0  10   0   0   0   2 14 13 
   2   0   0   0   0   0  10   0   0   0   0   2 14 13 
   1  10   0   0   0   0   0   0   0   0   0   1 14 
   2   0   0   0   0  10   0   0   0   0   0   1 13 
  10   0   0   0   0   0  10   0   0   0   0   2 18 16 
   9   0   0   0   0   0   0   0  10   0   0   2 18 16 
   8  10   0   0   0   0   0   0   0   0   0   2 18 16 
   3   0   0   0   0   0   0   0   0   0  10   1 17 
   2   0  10   0   0   0   0   0   0   0   0   2 21 19 
   7   0   0   0   0   0   0   0  10   0   0   2 21 19 
   5   0   0  10   0   0   0   0   0   0   0   1 20 
   2   0   0  10   0   0   0   0   0   0   0   1 22
  10   0   0   0   0   0   0   0   0  10   0   1 22
   0   0   0   0   0   0   0   0   0   0   0   0 
